100
1000
250
0 0
34 26
34 26
34 26
34 26
34 26
34 26
34 26
34 26
34 26
34 26
34 26
34 26
34 26
34 26
34 26
34 26
34 26
34 26
34 26
34 26
34 26
34 26
34 26
34 26
34 26
-28 20
-28 20
-28 20
-28 20
-28 20
-28 20
-28 20
-28 20
-28 20
-28 20
-28 20
-28 20
-28 20
-28 20
-28 20
-28 20
-28 20
-28 20
-28 20
-28 20
-28 20
-28 20
-28 20
-28 20
-28 20
-19 -37
-19 -37
-19 -37
-19 -37
-19 -37
-19 -37
-19 -37
-19 -37
-19 -37
-19 -37
-19 -37
-19 -37
-19 -37
-19 -37
-19 -37
-19 -37
-19 -37
-19 -37
-19 -37
-19 -37
-19 -37
-19 -37
-19 -37
-19 -37
-19 -37
-16 18
-16 18
-16 18
-16 18
-16 18
-16 18
-16 18
-16 18
-16 18
-16 18
-16 18
-16 18
-16 18
-16 18
-16 18
-16 18
-16 18
-16 18
-16 18
-16 18
-16 18
-16 18
-16 18
-16 18
-16 18
-19 24
-19 24
-19 24
-19 24
-19 24
-19 24
-19 24
-19 24
-19 24
-19 24
-19 24
-19 24
-19 24
-19 24
-19 24
-19 24
-19 24
-19 24
-19 24
-19 24
-19 24
-19 24
-19 24
-19 24
-19 24
32 -19
-32 23
-1 10
-19 4
-11 -34
33 -4
17 -17
-28 15
27 -8
-36 33
12 -33
-13 -40
-13 -25
34 -40
-31 -29
-10 -10
17 7
34 -26
-15 14
19 -4
25 26
4 18
32 26
-16 16
39 18
32 -19
-32 23
-1 10
-19 4
-11 -34
33 -4
17 -17
-28 15
27 -8
-36 33
12 -33
-13 -40
-13 -25
34 -40
-31 -29
-10 -10
17 7
34 -26
-15 14
19 -4
25 26
4 18
32 26
-16 16
39 18
32 -19
-32 23
-1 10
-19 4
-11 -34
33 -4
17 -17
-28 15
27 -8
-36 33
12 -33
-13 -40
-13 -25
34 -40
-31 -29
-10 -10
17 7
34 -26
-15 14
19 -4
25 26
4 18
32 26
-16 16
39 18
32 -19
-32 23
-1 10
-19 4
-11 -34
33 -4
17 -17
-28 15
27 -8
-36 33
12 -33
-13 -40
-13 -25
34 -40
-31 -29
-10 -10
17 7
34 -26
-15 14
19 -4
25 26
4 18
32 26
-16 16
39 18
32 -19
-32 23
-1 10
-19 4
-11 -34
33 -4
17 -17
-28 15
27 -8
-36 33
12 -33
-13 -40
-13 -25
34 -40
-31 -29
-10 -10
17 7
34 -26
-15 14
19 -4
25 26
4 18
32 26
-16 16
39 18
0 0 
55
56
56
57
54
55
54
53
53
53
54
51
52
55
59
57
51
59
56
57
60
60
52
56
56
54
55
57
54
60
56
56
53
53
56
57
60
55
53
56
60
55
51
52
53
59
55
55
55
57
52
53
55
55
56
59
51
56
51
52
55
54
54
57
56
59
54
52
55
54
57
55
56
59
54
54
59
57
53
57
57
56
54
55
55
53
55
57
60
57
54
52
53
56
51
53
55
59
54
54
51
56
60
52
54
56
56
56
53
60
55
57
57
53
52
55
57
59
59
60
59
56
53
59
55
55
56
56
57
54
55
54
53
53
53
54
51
52
55
59
57
51
59
56
57
60
60
52
56
56
54
55
57
54
60
56
56
53
53
56
57
60
55
53
56
60
55
51
52
53
59
55
55
55
57
52
53
55
55
56
59
51
56
51
52
55
54
54
57
56
59
54
52
55
54
57
55
56
59
54
54
59
57
53
57
57
56
54
55
55
53
55
57
60
57
54
52
53
56
51
53
55
59
54
54
51
56
60
52
54
56
56
56
53
60
55
57
57
53
52
55
57
59
59
60
59
56
53
59
55
